(declare-fun _if_cond_2_val () (Array Int Int))
(declare-fun _if_cond_3_val () (Array Int Int))
(declare-fun _if_cond_4_val () (Array Int Int))

(assert (forall ((_for_it_13 Int) (kfdia Int) (kidia Int) (klev Int) (klon Int) (ncldtop Int))
  (=>
    (and
      (<= 1 (+ klev (- 1)))
      (not (or (exists ((_for_it_15_0 Int)(_for_it_15_1 Int)(_for_it_14_0 Int)(_for_it_14_1 Int)) (and (<= _for_it_14_0 (+ klev (- 1))) (<= 0 _for_it_14_0) (= (- (+ (* _for_it_13 (- kfdia kidia) (+ klev (- 1))) _for_it_15_0 (* _for_it_14_0 (- kfdia kidia)) 1) kidia) (- (+ (* (+ _for_it_13 1) (- kfdia kidia) (+ klev (- 1))) _for_it_15_1 (* _for_it_14_1 (- kfdia kidia)) 1) kidia)) (<= 0 _for_it_14_1) (<= _for_it_15_1 (+ kfdia (- 1))) (<= (+ kidia (- 1)) _for_it_15_1) (<= _for_it_14_1 (+ klev (- 1))) (<= _for_it_15_0 (+ kfdia (- 1))) (<= (+ kidia (- 1)) _for_it_15_0))) (exists ((_for_it_15_0 Int)(_for_it_15_1 Int)(_for_it_14_0 Int)(_for_it_14_1 Int)) (and (<= _for_it_14_0 (+ klev (- 1))) (<= 0 _for_it_14_0) (<= 0 _for_it_14_1) (= (select _if_cond_2_val (- (+ (* (+ _for_it_13 1) (- kfdia kidia) (+ klev (- 1))) _for_it_15_1 (* _for_it_14_1 (- kfdia kidia)) 1) kidia)) 1) (<= _for_it_15_1 (+ kfdia (- 1))) (= (- (+ _for_it_15_0 1) 1) _for_it_15_1) (<= (+ kidia (- 1)) _for_it_15_1) (= (- (+ _for_it_14_0 1) 1) _for_it_14_1) (= (- (+ _for_it_13 1) 1) 4) (<= _for_it_14_1 (+ klev (- 1))) (<= _for_it_15_0 (+ kfdia (- 1))) (<= (+ kidia (- 1)) _for_it_15_0))) (exists ((_for_it_15_0 Int)(_for_it_15_1 Int)(_for_it_14_0 Int)(_for_it_14_1 Int)) (and (<= _for_it_14_0 (+ klev (- 1))) (<= 0 _for_it_14_0) (<= 0 _for_it_14_1) (= (select _if_cond_2_val (- (+ (* (+ _for_it_13 1) (- kfdia kidia) (+ klev (- 1))) _for_it_15_1 (* _for_it_14_1 (- kfdia kidia)) 1) kidia)) 1) (<= _for_it_15_1 (+ kfdia (- 1))) (= (- (+ _for_it_15_0 1) 1) _for_it_15_1) (<= (+ kidia (- 1)) _for_it_15_1) (= (- (+ _for_it_14_0 1) 1) _for_it_14_1) (<= _for_it_14_1 (+ klev (- 1))) (= (- (+ _for_it_13 1) 1) (+ _for_it_13 1)) (<= _for_it_15_0 (+ kfdia (- 1))) (<= (+ kidia (- 1)) _for_it_15_0))) (exists ((_for_it_15_0 Int)(_for_it_15_1 Int)(_for_it_14_0 Int)(_for_it_14_1 Int)) (and (<= _for_it_14_0 (+ klev (- 1))) (<= 0 _for_it_14_0) (<= 0 _for_it_14_1) (= (select _if_cond_2_val (- (+ (* (+ _for_it_13 1) (- kfdia kidia) (+ klev (- 1))) _for_it_15_1 (* _for_it_14_1 (- kfdia kidia)) 1) kidia)) 1) (<= _for_it_15_1 (+ kfdia (- 1))) (= (select _if_cond_2_val (- (+ (* _for_it_13 (- kfdia kidia) (+ klev (- 1))) _for_it_15_0 (* _for_it_14_0 (- kfdia kidia)) 1) kidia)) 1) (<= (+ kidia (- 1)) _for_it_15_1) (= (select _if_cond_3_val (- (+ (* (+ _for_it_13 1) (- kfdia kidia) (+ klev (- 1))) _for_it_15_1 (* _for_it_14_1 (- kfdia kidia)) 1) kidia)) 1) (<= _for_it_14_1 (+ klev (- 1))) (<= _for_it_15_0 (+ kfdia (- 1))) (<= (+ kidia (- 1)) _for_it_15_0))) (exists ((_for_it_15_0 Int)(_for_it_15_1 Int)(_for_it_14_0 Int)(_for_it_14_1 Int)) (and (<= _for_it_14_0 (+ klev (- 1))) (<= 0 _for_it_14_0) (<= 0 _for_it_14_1) (= (select _if_cond_2_val (- (+ (* (+ _for_it_13 1) (- kfdia kidia) (+ klev (- 1))) _for_it_15_1 (* _for_it_14_1 (- kfdia kidia)) 1) kidia)) 1) (<= _for_it_15_1 (+ kfdia (- 1))) (= (select _if_cond_2_val (- (+ (* _for_it_13 (- kfdia kidia) (+ klev (- 1))) _for_it_15_0 (* _for_it_14_0 (- kfdia kidia)) 1) kidia)) 1) (<= (+ kidia (- 1)) _for_it_15_1) (<= _for_it_14_1 (+ klev (- 1))) (= (select _if_cond_4_val (- (+ (* (+ _for_it_13 1) (- kfdia kidia) (+ klev (- 1))) _for_it_15_1 (* _for_it_14_1 (- kfdia kidia)) 1) kidia)) 1) (<= _for_it_15_0 (+ kfdia (- 1))) (<= (+ kidia (- 1)) _for_it_15_0))) (exists ((_for_it_15_0 Int)(_for_it_15_1 Int)(_for_it_14_0 Int)(_for_it_14_1 Int)) (and (<= _for_it_14_0 (+ klev (- 1))) (= _for_it_14_0 _for_it_14_1) (= _for_it_15_0 _for_it_15_1) (<= 0 _for_it_14_0) (= _for_it_13 4) (<= 0 _for_it_14_1) (= (select _if_cond_2_val (- (+ (* (+ _for_it_13 1) (- kfdia kidia) (+ klev (- 1))) _for_it_15_1 (* _for_it_14_1 (- kfdia kidia)) 1) kidia)) 1) (<= _for_it_15_1 (+ kfdia (- 1))) (= (select _if_cond_2_val (- (+ (* _for_it_13 (- kfdia kidia) (+ klev (- 1))) _for_it_15_0 (* _for_it_14_0 (- kfdia kidia)) 1) kidia)) 1) (<= (+ kidia (- 1)) _for_it_15_1) (<= _for_it_14_1 (+ klev (- 1))) (<= _for_it_15_0 (+ kfdia (- 1))) (<= (+ kidia (- 1)) _for_it_15_0))) (exists ((_for_it_15_0 Int)(_for_it_15_1 Int)(_for_it_14_0 Int)(_for_it_14_1 Int)) (and (<= _for_it_14_0 (+ klev (- 1))) (<= 0 _for_it_14_0) (<= 0 _for_it_14_1) (= (select _if_cond_2_val (- (+ (* (+ _for_it_13 1) (- kfdia kidia) (+ klev (- 1))) _for_it_15_1 (* _for_it_14_1 (- kfdia kidia)) 1) kidia)) 1) (<= _for_it_15_1 (+ kfdia (- 1))) (= (select _if_cond_2_val (- (+ (* _for_it_13 (- kfdia kidia) (+ klev (- 1))) _for_it_15_0 (* _for_it_14_0 (- kfdia kidia)) 1) kidia)) 1) (<= (+ kidia (- 1)) _for_it_15_1) (<= _for_it_14_1 (+ klev (- 1))) (<= _for_it_15_0 (+ kfdia (- 1))) (<= (+ kidia (- 1)) _for_it_15_0))) (exists ((_for_it_15_0 Int)(_for_it_15_1 Int)(_for_it_14_0 Int)(_for_it_14_1 Int)) (and (<= _for_it_14_0 (+ klev (- 1))) (= _for_it_14_0 _for_it_14_1) (= _for_it_15_0 _for_it_15_1) (<= 0 _for_it_14_0) (<= 0 _for_it_14_1) (= (select _if_cond_2_val (- (+ (* (+ _for_it_13 1) (- kfdia kidia) (+ klev (- 1))) _for_it_15_1 (* _for_it_14_1 (- kfdia kidia)) 1) kidia)) 1) (<= _for_it_15_1 (+ kfdia (- 1))) (= (select _if_cond_2_val (- (+ (* _for_it_13 (- kfdia kidia) (+ klev (- 1))) _for_it_15_0 (* _for_it_14_0 (- kfdia kidia)) 1) kidia)) 1) (<= (+ kidia (- 1)) _for_it_15_1) (<= _for_it_14_1 (+ klev (- 1))) (<= _for_it_15_0 (+ kfdia (- 1))) (<= (+ kidia (- 1)) _for_it_15_0))) (exists ((_for_it_15_0 Int)(_for_it_15_1 Int)(_for_it_14_0 Int)(_for_it_14_1 Int)) (and (<= _for_it_14_0 (+ klev (- 1))) (<= 0 _for_it_14_0) (= (select _if_cond_3_val (- (+ (* _for_it_13 (- kfdia kidia) (+ klev (- 1))) _for_it_15_0 (* _for_it_14_0 (- kfdia kidia)) 1) kidia)) 1) (<= 0 _for_it_14_1) (= (select _if_cond_2_val (- (+ (* (+ _for_it_13 1) (- kfdia kidia) (+ klev (- 1))) _for_it_15_1 (* _for_it_14_1 (- kfdia kidia)) 1) kidia)) 1) (<= _for_it_15_1 (+ kfdia (- 1))) (= (select _if_cond_2_val (- (+ (* _for_it_13 (- kfdia kidia) (+ klev (- 1))) _for_it_15_0 (* _for_it_14_0 (- kfdia kidia)) 1) kidia)) 1) (<= (+ kidia (- 1)) _for_it_15_1) (<= _for_it_14_1 (+ klev (- 1))) (<= _for_it_15_0 (+ kfdia (- 1))) (<= (+ kidia (- 1)) _for_it_15_0))) (exists ((_for_it_15_0 Int)(_for_it_15_1 Int)(_for_it_14_0 Int)(_for_it_14_1 Int)) (and (<= _for_it_14_0 (+ klev (- 1))) (= _for_it_14_0 _for_it_14_1) (= _for_it_15_0 _for_it_15_1) (<= 0 _for_it_14_0) (= (select _if_cond_3_val (- (+ (* _for_it_13 (- kfdia kidia) (+ klev (- 1))) _for_it_15_0 (* _for_it_14_0 (- kfdia kidia)) 1) kidia)) 1) (<= 0 _for_it_14_1) (= (select _if_cond_2_val (- (+ (* (+ _for_it_13 1) (- kfdia kidia) (+ klev (- 1))) _for_it_15_1 (* _for_it_14_1 (- kfdia kidia)) 1) kidia)) 1) (<= _for_it_15_1 (+ kfdia (- 1))) (= (select _if_cond_2_val (- (+ (* _for_it_13 (- kfdia kidia) (+ klev (- 1))) _for_it_15_0 (* _for_it_14_0 (- kfdia kidia)) 1) kidia)) 1) (<= (+ kidia (- 1)) _for_it_15_1) (= (select _if_cond_3_val (- (+ (* (+ _for_it_13 1) (- kfdia kidia) (+ klev (- 1))) _for_it_15_1 (* _for_it_14_1 (- kfdia kidia)) 1) kidia)) 1) (<= _for_it_14_1 (+ klev (- 1))) (<= _for_it_15_0 (+ kfdia (- 1))) (<= (+ kidia (- 1)) _for_it_15_0))) (exists ((_for_it_15_0 Int)(_for_it_15_1 Int)(_for_it_14_0 Int)(_for_it_14_1 Int)) (and (= _for_it_15_0 _for_it_15_1) (<= _for_it_14_0 (+ klev (- 1))) (= _for_it_14_0 _for_it_14_1) (<= 0 _for_it_14_0) (= (select _if_cond_3_val (- (+ (* _for_it_13 (- kfdia kidia) (+ klev (- 1))) _for_it_15_0 (* _for_it_14_0 (- kfdia kidia)) 1) kidia)) 1) (<= 0 _for_it_14_1) (= (select _if_cond_2_val (- (+ (* (+ _for_it_13 1) (- kfdia kidia) (+ klev (- 1))) _for_it_15_1 (* _for_it_14_1 (- kfdia kidia)) 1) kidia)) 1) (<= _for_it_15_1 (+ kfdia (- 1))) (= (select _if_cond_2_val (- (+ (* _for_it_13 (- kfdia kidia) (+ klev (- 1))) _for_it_15_0 (* _for_it_14_0 (- kfdia kidia)) 1) kidia)) 1) (<= (+ kidia (- 1)) _for_it_15_1) (<= _for_it_14_1 (+ klev (- 1))) (= (select _if_cond_4_val (- (+ (* (+ _for_it_13 1) (- kfdia kidia) (+ klev (- 1))) _for_it_15_1 (* _for_it_14_1 (- kfdia kidia)) 1) kidia)) 1) (<= _for_it_15_0 (+ kfdia (- 1))) (<= (+ kidia (- 1)) _for_it_15_0))) (exists ((_for_it_15_0 Int)(_for_it_15_1 Int)(_for_it_14_0 Int)(_for_it_14_1 Int)) (and (<= _for_it_14_0 (+ klev (- 1))) (<= 0 _for_it_14_0) (= (- (+ (* _for_it_13 (- kfdia kidia) (+ klev (- 1))) _for_it_15_0 (* _for_it_14_0 (- kfdia kidia)) 1) kidia) (- (+ (* (+ _for_it_13 1) (- kfdia kidia) (+ klev (- 1))) _for_it_15_1 (* _for_it_14_1 (- kfdia kidia)) 1) kidia)) (<= 0 _for_it_14_1) (= (select _if_cond_2_val (- (+ (* (+ _for_it_13 1) (- kfdia kidia) (+ klev (- 1))) _for_it_15_1 (* _for_it_14_1 (- kfdia kidia)) 1) kidia)) 1) (<= _for_it_15_1 (+ kfdia (- 1))) (= (select _if_cond_2_val (- (+ (* _for_it_13 (- kfdia kidia) (+ klev (- 1))) _for_it_15_0 (* _for_it_14_0 (- kfdia kidia)) 1) kidia)) 1) (<= (+ kidia (- 1)) _for_it_15_1) (<= _for_it_14_1 (+ klev (- 1))) (<= _for_it_15_0 (+ kfdia (- 1))) (<= (+ kidia (- 1)) _for_it_15_0))) (exists ((_for_it_15_0 Int)(_for_it_15_1 Int)(_for_it_14_0 Int)(_for_it_14_1 Int)) (and (<= _for_it_14_0 (+ klev (- 1))) (<= 0 _for_it_14_0) (<= 0 _for_it_14_1) (= (select _if_cond_2_val (- (+ (* (+ _for_it_13 1) (- kfdia kidia) (+ klev (- 1))) _for_it_15_1 (* _for_it_14_1 (- kfdia kidia)) 1) kidia)) 1) (= (select _if_cond_4_val (- (+ (* _for_it_13 (- kfdia kidia) (+ klev (- 1))) _for_it_15_0 (* _for_it_14_0 (- kfdia kidia)) 1) kidia)) 1) (<= _for_it_15_1 (+ kfdia (- 1))) (= (select _if_cond_2_val (- (+ (* _for_it_13 (- kfdia kidia) (+ klev (- 1))) _for_it_15_0 (* _for_it_14_0 (- kfdia kidia)) 1) kidia)) 1) (<= (+ kidia (- 1)) _for_it_15_1) (<= _for_it_14_1 (+ klev (- 1))) (<= _for_it_15_0 (+ kfdia (- 1))) (<= (+ kidia (- 1)) _for_it_15_0))) (exists ((_for_it_15_0 Int)(_for_it_15_1 Int)(_for_it_14_0 Int)(_for_it_14_1 Int)) (and (<= _for_it_14_0 (+ klev (- 1))) (= _for_it_14_0 _for_it_14_1) (= _for_it_15_0 _for_it_15_1) (<= 0 _for_it_14_0) (<= 0 _for_it_14_1) (= (select _if_cond_2_val (- (+ (* (+ _for_it_13 1) (- kfdia kidia) (+ klev (- 1))) _for_it_15_1 (* _for_it_14_1 (- kfdia kidia)) 1) kidia)) 1) (= (select _if_cond_4_val (- (+ (* _for_it_13 (- kfdia kidia) (+ klev (- 1))) _for_it_15_0 (* _for_it_14_0 (- kfdia kidia)) 1) kidia)) 1) (<= _for_it_15_1 (+ kfdia (- 1))) (= (select _if_cond_2_val (- (+ (* _for_it_13 (- kfdia kidia) (+ klev (- 1))) _for_it_15_0 (* _for_it_14_0 (- kfdia kidia)) 1) kidia)) 1) (<= (+ kidia (- 1)) _for_it_15_1) (= (select _if_cond_3_val (- (+ (* (+ _for_it_13 1) (- kfdia kidia) (+ klev (- 1))) _for_it_15_1 (* _for_it_14_1 (- kfdia kidia)) 1) kidia)) 1) (<= _for_it_14_1 (+ klev (- 1))) (<= _for_it_15_0 (+ kfdia (- 1))) (<= (+ kidia (- 1)) _for_it_15_0))) (exists ((_for_it_15_0 Int)(_for_it_15_1 Int)(_for_it_14_0 Int)(_for_it_14_1 Int)) (and (= _for_it_15_0 _for_it_15_1) (<= _for_it_14_0 (+ klev (- 1))) (= _for_it_14_0 _for_it_14_1) (<= 0 _for_it_14_0) (<= 0 _for_it_14_1) (= (select _if_cond_2_val (- (+ (* (+ _for_it_13 1) (- kfdia kidia) (+ klev (- 1))) _for_it_15_1 (* _for_it_14_1 (- kfdia kidia)) 1) kidia)) 1) (= (select _if_cond_4_val (- (+ (* _for_it_13 (- kfdia kidia) (+ klev (- 1))) _for_it_15_0 (* _for_it_14_0 (- kfdia kidia)) 1) kidia)) 1) (<= _for_it_15_1 (+ kfdia (- 1))) (= (select _if_cond_2_val (- (+ (* _for_it_13 (- kfdia kidia) (+ klev (- 1))) _for_it_15_0 (* _for_it_14_0 (- kfdia kidia)) 1) kidia)) 1) (<= (+ kidia (- 1)) _for_it_15_1) (<= _for_it_14_1 (+ klev (- 1))) (= (select _if_cond_4_val (- (+ (* (+ _for_it_13 1) (- kfdia kidia) (+ klev (- 1))) _for_it_15_1 (* _for_it_14_1 (- kfdia kidia)) 1) kidia)) 1) (<= _for_it_15_0 (+ kfdia (- 1))) (<= (+ kidia (- 1)) _for_it_15_0))) (exists ((_for_it_15_0 Int)(_for_it_15_1 Int)(_for_it_14_0 Int)(_for_it_14_1 Int)) (and (<= _for_it_14_0 (+ klev (- 1))) (<= 0 _for_it_14_0) (= _for_it_15_0 (- (+ _for_it_15_1 1) 1)) (= _for_it_14_0 (- (+ _for_it_14_1 1) 1)) (<= 0 _for_it_14_1) (= 4 (- (+ _for_it_13 2) 1)) (<= _for_it_15_1 (+ kfdia (- 1))) (= (select _if_cond_2_val (- (+ (* _for_it_13 (- kfdia kidia) (+ klev (- 1))) _for_it_15_0 (* _for_it_14_0 (- kfdia kidia)) 1) kidia)) 1) (<= (+ kidia (- 1)) _for_it_15_1) (<= _for_it_14_1 (+ klev (- 1))) (<= _for_it_15_0 (+ kfdia (- 1))) (<= (+ kidia (- 1)) _for_it_15_0))) (exists ((_for_it_15_0 Int)(_for_it_15_1 Int)(_for_it_14_0 Int)(_for_it_14_1 Int)) (and (<= _for_it_14_0 (+ klev (- 1))) (= _for_it_14_0 _for_it_14_1) (= _for_it_15_0 _for_it_15_1) (<= 0 _for_it_14_0) (<= 0 _for_it_14_1) (= 4 (+ _for_it_13 1)) (= (select _if_cond_2_val (- (+ (* (+ _for_it_13 1) (- kfdia kidia) (+ klev (- 1))) _for_it_15_1 (* _for_it_14_1 (- kfdia kidia)) 1) kidia)) 1) (<= _for_it_15_1 (+ kfdia (- 1))) (= (select _if_cond_2_val (- (+ (* _for_it_13 (- kfdia kidia) (+ klev (- 1))) _for_it_15_0 (* _for_it_14_0 (- kfdia kidia)) 1) kidia)) 1) (<= (+ kidia (- 1)) _for_it_15_1) (<= _for_it_14_1 (+ klev (- 1))) (<= _for_it_15_0 (+ kfdia (- 1))) (<= (+ kidia (- 1)) _for_it_15_0))) (exists ((_for_it_15_0 Int)(_for_it_15_1 Int)(_for_it_14_0 Int)(_for_it_14_1 Int)) (and (or (and (= _for_it_15_0 _for_it_15_1) (= _for_it_14_0 _for_it_14_1)) (and (= _for_it_13 4) (= _for_it_15_0 _for_it_15_1) (= _for_it_14_0 _for_it_14_1)) (and (= _for_it_15_0 _for_it_15_1) (= _for_it_14_0 _for_it_14_1) (= 4 (+ _for_it_13 1)))) (<= _for_it_14_0 (+ klev (- 1))) (<= 0 _for_it_14_0) (<= 0 _for_it_14_1) (= (select _if_cond_2_val (- (+ (* (+ _for_it_13 1) (- kfdia kidia) (+ klev (- 1))) _for_it_15_1 (* _for_it_14_1 (- kfdia kidia)) 1) kidia)) 1) (<= _for_it_15_1 (+ kfdia (- 1))) (= (select _if_cond_2_val (- (+ (* _for_it_13 (- kfdia kidia) (+ klev (- 1))) _for_it_15_0 (* _for_it_14_0 (- kfdia kidia)) 1) kidia)) 1) (<= (+ kidia (- 1)) _for_it_15_1) (<= _for_it_14_1 (+ klev (- 1))) (<= _for_it_15_0 (+ kfdia (- 1))) (<= (+ kidia (- 1)) _for_it_15_0))) (exists ((_for_it_15_0 Int)(_for_it_15_1 Int)(_for_it_14_0 Int)(_for_it_14_1 Int)) (and (<= _for_it_14_0 (+ klev (- 1))) (<= 0 _for_it_14_0) (or (and (= _for_it_15_0 _for_it_15_1) (= _for_it_14_0 _for_it_14_1) (= _for_it_13 (+ _for_it_13 1))) (and (= _for_it_15_0 _for_it_15_1) (= _for_it_14_0 _for_it_14_1) (= 4 (+ _for_it_13 1)))) (<= 0 _for_it_14_1) (= (select _if_cond_2_val (- (+ (* (+ _for_it_13 1) (- kfdia kidia) (+ klev (- 1))) _for_it_15_1 (* _for_it_14_1 (- kfdia kidia)) 1) kidia)) 1) (<= _for_it_15_1 (+ kfdia (- 1))) (= (select _if_cond_2_val (- (+ (* _for_it_13 (- kfdia kidia) (+ klev (- 1))) _for_it_15_0 (* _for_it_14_0 (- kfdia kidia)) 1) kidia)) 1) (<= (+ kidia (- 1)) _for_it_15_1) (<= _for_it_14_1 (+ klev (- 1))) (<= _for_it_15_0 (+ kfdia (- 1))) (<= (+ kidia (- 1)) _for_it_15_0))) (exists ((_for_it_15_0 Int)(_for_it_15_1 Int)(_for_it_14_0 Int)(_for_it_14_1 Int)) (and (<= _for_it_14_0 (+ klev (- 1))) (<= 0 _for_it_14_0) (= _for_it_15_0 (- (+ _for_it_15_1 1) 1)) (= _for_it_14_0 (- (+ _for_it_14_1 1) 1)) (= _for_it_13 (- (+ _for_it_13 2) 1)) (<= 0 _for_it_14_1) (<= _for_it_15_1 (+ kfdia (- 1))) (= (select _if_cond_2_val (- (+ (* _for_it_13 (- kfdia kidia) (+ klev (- 1))) _for_it_15_0 (* _for_it_14_0 (- kfdia kidia)) 1) kidia)) 1) (<= (+ kidia (- 1)) _for_it_15_1) (<= _for_it_14_1 (+ klev (- 1))) (<= _for_it_15_0 (+ kfdia (- 1))) (<= (+ kidia (- 1)) _for_it_15_0))) (exists ((_for_it_15_0 Int)(_for_it_15_1 Int)(_for_it_14_0 Int)(_for_it_14_1 Int)) (and (<= _for_it_14_0 (+ klev (- 1))) (<= 0 _for_it_14_0) (<= 0 _for_it_14_1) (= (select _if_cond_2_val (- (+ (* (+ _for_it_13 1) (- kfdia kidia) (+ klev (- 1))) _for_it_15_1 (* _for_it_14_1 (- kfdia kidia)) 1) kidia)) 1) (<= _for_it_15_1 (+ kfdia (- 1))) (= (select _if_cond_2_val (- (+ (* _for_it_13 (- kfdia kidia) (+ klev (- 1))) _for_it_15_0 (* _for_it_14_0 (- kfdia kidia)) 1) kidia)) 1) (<= (+ kidia (- 1)) _for_it_15_1) (or (and (= _for_it_13 4) (= _for_it_15_0 _for_it_15_1) (= _for_it_14_0 _for_it_14_1)) (and (= _for_it_15_0 _for_it_15_1) (= _for_it_14_0 _for_it_14_1) (= _for_it_13 (+ _for_it_13 1)))) (<= _for_it_14_1 (+ klev (- 1))) (<= _for_it_15_0 (+ kfdia (- 1))) (<= (+ kidia (- 1)) _for_it_15_0))) (exists ((_for_it_15_0 Int)(_for_it_15_1 Int)(_for_it_14_0 Int)(_for_it_14_1 Int)) (and (<= _for_it_14_0 (+ klev (- 1))) (= _for_it_14_0 _for_it_14_1) (= _for_it_15_0 _for_it_15_1) (<= 0 _for_it_14_0) (= _for_it_13 (+ _for_it_13 1)) (<= 0 _for_it_14_1) (= (select _if_cond_2_val (- (+ (* (+ _for_it_13 1) (- kfdia kidia) (+ klev (- 1))) _for_it_15_1 (* _for_it_14_1 (- kfdia kidia)) 1) kidia)) 1) (<= _for_it_15_1 (+ kfdia (- 1))) (= (select _if_cond_2_val (- (+ (* _for_it_13 (- kfdia kidia) (+ klev (- 1))) _for_it_15_0 (* _for_it_14_0 (- kfdia kidia)) 1) kidia)) 1) (<= (+ kidia (- 1)) _for_it_15_1) (<= _for_it_14_1 (+ klev (- 1))) (<= _for_it_15_0 (+ kfdia (- 1))) (<= (+ kidia (- 1)) _for_it_15_0)))))
      (<= 0 _for_it_13)
      (<= (+ _for_it_13 1) 3)
      (<= kidia (+ kfdia (- 1)))
    )
    false
  )
))

(check-sat)